Solver command line: ['C:\\Program Files\\IBM\\ILOG\\CPLEX_Studio2211\\cplex\\bin\\x64_win64\\cplex.exe']


Welcome to IBM(R) ILOG(R) CPLEX(R) Interactive Optimizer 22.1.1.0
  with Simplex, Mixed Integer & Barrier Optimizers
5725-A06 5725-A29 5724-Y48 5724-Y49 5724-Y54 5724-Y55 5655-Y21
Copyright IBM Corp. 1988, 2022.  All Rights Reserved.

Type 'help' for a list of available commands.
Type 'help' followed by a command name for more
information on commands.

CPLEX> Logfile 'cplex.log' closed.
Logfile 'C:\Users\wangy\Documents\GitHub\re_optimization\result_site_specific\tmpinlov887.cplex.log' open.
CPLEX> Problem 'C:\Users\wangy\Documents\GitHub\re_optimization\result_site_specific\tmpsu8joetu.pyomo.lp' read.
Read time = 0.30 sec. (9.13 ticks)
CPLEX> Problem name         : C:\Users\wangy\Documents\GitHub\re_optimization\result_site_specific\tmpsu8joetu.pyomo.lp
Objective sense      : Minimize
Variables            :   65769  [Nneg: 35068,  Free: 8792,  Binary: 9,
                                 Other: 21900]
Objective nonzeros   :      17
Linear constraints   :   87665  [Less: 46741,  Greater: 5,  Equal: 40919]
  Nonzeros           :  225098
  RHS nonzeros       :    3697

Variables            : Min LB: 0.000000         Max UB: 1.000000       
Objective nonzeros   : Min   : 1.000000         Max   : 1.000000       
Linear constraints   :
  Nonzeros           : Min   : 0.0001167935     Max   : 100000.0       
  RHS nonzeros       : Min   : 1.000000         Max   : 100000.0       
CPLEX> Version identifier: 22.1.1.0 | 2022-11-27 | 9160aff4d
Tried aggregator 3 times.
MIP Presolve eliminated 52929 rows and 32487 columns.
Aggregator did 10306 substitutions.
Reduced MIP has 24430 rows, 22976 columns, and 73147 nonzeros.
Reduced MIP has 5 binaries, 0 generals, 0 SOSs, and 0 indicators.
Presolve time = 0.20 sec. (223.95 ticks)
Found incumbent of value 438291.542585 after 0.30 sec. (334.57 ticks)
Probing time = 0.00 sec. (1.37 ticks)
Tried aggregator 1 time.
Detecting symmetries...
Reduced MIP has 24430 rows, 22976 columns, and 73147 nonzeros.
Reduced MIP has 5 binaries, 0 generals, 0 SOSs, and 0 indicators.
Presolve time = 0.05 sec. (44.23 ticks)
Probing time = 0.00 sec. (1.26 ticks)
MIP emphasis: balance optimality and feasibility.
MIP search method: dynamic search.
Parallel mode: deterministic, using up to 16 threads.
Root relaxation solution time = 1.08 sec. (755.72 ticks)

        Nodes                                         Cuts/
   Node  Left     Objective  IInf  Best Integer    Best Bound    ItCnt     Gap

*     0+    0                       438291.5426   -28065.3998           106.40%
      0     0    19193.1142     1   438291.5426    19193.1142       54   95.62%
*     0+    0                        20797.5554    19193.1142             7.71%
*     0+    0                        20514.8278    19193.1142             6.44%
      0     0        cutoff          20514.8278                    687    0.00%
Elapsed time = 1.78 sec. (1640.22 ticks, tree = 0.01 MB, solutions = 3)

Root node processing (before b&c):
  Real time             =    1.80 sec. (1643.40 ticks)
Parallel b&c, 16 threads:
  Real time             =    0.00 sec. (0.00 ticks)
  Sync time (average)   =    0.00 sec.
  Wait time (average)   =    0.00 sec.
                          ------------
Total (root+branch&cut) =    1.80 sec. (1643.40 ticks)

Solution pool: 3 solutions saved.

MIP - Integer optimal solution:  Objective =  2.0514827765e+04
Solution time =    1.81 sec.  Iterations = 687  Nodes = 0
Deterministic time = 1643.58 ticks  (906.56 ticks/sec)

CPLEX> Incumbent solution written to file 'C:\Users\wangy\Documents\GitHub\re_optimization\result_site_specific\tmp67_s_y9y.cplex.sol'.
CPLEX> 
